g3 1 1 0	# problem L1ZDT4
 10 0 2 0 0	# vars, constraints, objectives, ranges, eqns
 0 2	# nonlinear constraints, objectives
 0 0	# network constraints: nonlinear, linear
 0 10 0	# nonlinear vars in constraints, objectives, both
 0 0 0 1	# linear network variables; functions; arith, flags
 0 0 0 0 0	# discrete variables: binary, integer, nonlinear (b,c,o)
 0 11	# nonzeros in Jacobian, gradients
 0 0	# max name lengths: constraints, variables
 0 0 2 0 11	# common exprs: b,c,o,c1,o1
V10 1 0
0 1
n0
V11 0 0
o5
v10
n2
O0 0
v11
V12 9 2
1 0.884043
2 -0.272951
3 -0.993822
4 0.511197
5 -0.0997948
6 -0.659756
7 0.575496
8 0.675617
9 0.180332
n0
V13 9 2
1 -0.492722
2 0.0646786
3 -0.666503
4 -0.945716
5 -0.334582
6 0.611894
7 0.281032
8 0.508749
9 -0.0265389
n0
V14 9 2
1 0.308861
2 -0.0437502
3 -0.374203
4 0.207359
5 -0.219433
6 0.914104
7 0.184408
8 0.520599
9 -0.88565
n0
V15 9 2
1 -0.708948
2 -0.37902
3 0.576578
4 0.0194674
5 -0.470262
6 0.572576
7 0.351245
8 -0.480477
9 0.238261
n0
V16 9 2
1 -0.827302
2 0.669248
3 0.494475
4 0.691715
5 -0.198585
6 0.0492812
7 0.959669
8 0.884086
9 -0.218632
n0
V17 9 2
1 -0.715997
2 0.220772
3 0.692356
4 0.646453
5 -0.401724
6 0.615443
7 -0.0601957
8 -0.748176
9 -0.207987
n0
V18 9 2
1 0.613732
2 -0.525712
3 -0.995728
4 0.389633
5 -0.064173
6 0.662131
7 -0.707048
8 -0.340423
9 0.60624
n0
V19 9 2
1 -0.160446
2 -0.394585
3 -0.167581
4 0.0679849
5 0.449799
6 0.733505
7 -0.00918638
8 0.00446808
9 0.404396
n0
V20 9 2
1 0.162711
2 0.294454
3 -0.563345
4 -0.114993
5 0.549589
6 -0.775141
7 0.677726
8 0.610715
9 0.0850755
n0
V21 0 2
o54
19
o5
v12
n2
o2
n-10
o46
o2
n12.566370614359172
v12
o5
v13
n2
o2
n-10
o46
o2
n12.566370614359172
v13
o5
v14
n2
o2
n-10
o46
o2
n12.566370614359172
v14
o5
v15
n2
o2
n-10
o46
o2
n12.566370614359172
v15
o5
v16
n2
o2
n-10
o46
o2
n12.566370614359172
v16
o5
v17
n2
o2
n-10
o46
o2
n12.566370614359172
v17
o5
v18
n2
o2
n-10
o46
o2
n12.566370614359172
v18
o5
v19
n2
o2
n-10
o46
o2
n12.566370614359172
v19
o5
v20
n2
o2
n-10
o46
o2
n12.566370614359172
v20
n91
V22 0 2
o1
n1
o39
o3
v11
v21
O1 0
o2
v21
v22
b
0 0 1
0 -5 5
0 -5 5
0 -5 5
0 -5 5
0 -5 5
0 -5 5
0 -5 5
0 -5 5
0 -5 5
k9
0
0
0
0
0
0
0
0
0
G0 1
0 0
G1 10
0 0
1 0
2 0
3 0
4 0
5 0
6 0
7 0
8 0
9 0
